NAME : mtsp100.23174897.tour
COMMENT : Length = 23174897
COMMENT : Found by LKH-3 [Keld Helsgaun] Tue Mar 15 22:40:29 2022
TYPE : TOUR
DIMENSION : 104
TOUR_SECTION
1
27
101
24
88
79
13
102
34
38
66
8
52
46
69
15
84
41
73
39
71
4
93
44
60
53
5
62
37
19
51
35
30
100
2
48
92
55
87
26
95
56
28
12
47
21
10
9
20
25
82
18
6
40
83
3
59
85
64
43
77
91
54
63
16
96
86
65
14
68
33
45
99
78
31
57
72
80
76
61
74
7
75
67
36
29
58
22
42
23
11
17
90
89
70
49
98
97
32
94
103
81
104
50
-1
EOF
